Atributos= [| 
1, 0, 0, 1, 0|
1, 0, 0, 0, 0|
1, 0, 0, 1, 0|
1, 0, 0, 0, 0|
1, 0, 0, 0, 1|
1, 0, 1, 0, 1|
1, 0, 0, 0, 1|
1, 0, 0, 0, 0|
1, 0, 0, 1, 1|
1, 0, 0, 0, 0|
0, 1, 0, 0, 0|
0, 1, 0, 0, 0|
0, 1, 0, 0, 0|
0, 1, 0, 0, 1|
0, 1, 0, 0, 0|
0, 1, 0, 1, 0|
0, 1, 1, 0, 1|
0, 1, 1, 0, 0|
0, 1, 0, 0, 1|
0, 1, 1, 1, 0|];

Restricciones= [|
4, 1, 1, 1, 1, 1|
5, 1, 1, 1, 1, 1|
5, 1, 1, 1, 1, 1|
6, 2, 2, 1, 1, 1|
7, 3, 3, 1, 1, 1|
4, 1, 1, 1, 1, 1|
5, 1, 1, 1, 1, 1|
6, 1, 1, 1, 1, 1|
6, 2, 2, 1, 1, 1|
7, 3, 3, 1, 1, 1|];
